&CONTROL
    calculation = "scf"
    prefix      = "co"
    restart_mode     = 'from_scratch'
    pseudo_dir  = '/home/luis.arrietaaraya/docs/psp/paw6.1'
    disk_io          = 'high'
    wfcdir           = './'
    wf_collect       = .true.
    tprnfor          = .true.
    tstress          = .true.


/

&SYSTEM
    a                         =  6.21436e+00
    c                         =  2.39280e+01
    degauss                   =  1.00000e-02
    ecutrho                   =  7.0000e+02
    ecutwfc                   =  7.0000e+01
    ibrav                     = 4
    nat                       = 39
    ntyp                      = 6
    lda_plus_u  = .true.
    occupations = "smearing"
    smearing    = "fermi-dirac"
    nosym       = .true.
    noinv       = .true.
    hubbard_u(1) = 6.67
    hubbard_u(2) = 3.52
/

&ELECTRONS
    conv_thr         =  1.00000e-06
    diagonalization  = "david"
    electron_maxstep = 200
    mixing_beta      =  7.00000e-01
    mixing_mode      = "local-TF"
    startingpot      = "atomic"
    startingwfc      = "atomic+random"

/

&IONS
    ion_dynamics  = "bfgs"
/

&CELL
/

K_POINTS {automatic}
12 12  1  0 0 0

ATOMIC_SPECIES
Co     58.93320  Co.pbe-n-kjpaw_psl.1.0.0.UPF 
Nb     92.90638  Nb.pbe-spn-kjpaw_psl.1.0.0.UPF
C      12.01070  C.pbe-n-kjpaw_psl.1.0.0.UPF
O      15.99940  O.pbe-n-kjpaw_psl.1.0.0.UPF
F      18.99840  F.pbe-n-kjpaw_psl.1.0.0.UPF
H       1.00794  H.pbe-kjpaw_psl.1.0.0.UPF


ATOMIC_POSITIONS {angstrom}
Co               6.0794112677        0.1256333778       15.3569087613
Co               4.4535676846        2.8658127542       15.3291148477
Co               2.8694079350        0.2277766985       15.3073488067
Nb               1.3643958732        1.0949908902       13.3077258743
Nb               4.4725088900        1.0730942832       13.3109048992
Nb              -0.2142494351        3.7829443386       13.2235429501
Nb               2.8990563039        3.7451774375       13.3160554214
Nb              -0.2127017765        1.9423059704       10.5881937806
Nb              -1.7995951702        4.6918542022       10.5965378211
Nb               2.9027131187        1.9772601387       10.6258804900
Nb               0.9717089431        3.0725318003       16.0479044140
Nb               2.8937815312        5.5703340215        8.0455735340
Nb               4.4252798480        2.8636651943        8.1069478716
Nb              -0.2103401970        5.6006742435        8.1075893377
Nb               1.3757702263        4.6929358245       10.5920870414
Nb               1.3663154853        2.8650936599        8.1064063798
C               -0.2171264798        1.9529048175       14.6246369137
C                2.8575291553        2.0179238272       14.7319488919
C                1.3381618808        1.0840097036        9.3395084500
C               -3.3150182804        5.5687945809       11.9989064095
C               -1.7441396880        4.6482249432       14.7349265715
C                1.3412890762        4.6840199412       14.6555599129
C               -0.2089684335        3.7754962612        9.2996013289
C                4.4565520250        1.0810456788        9.3406442814
C                2.8949511692        3.7799005803        9.3400082856
C               -1.7647338868        2.8830276541       11.9727059494
C               -0.2162336007        5.5666136995       11.9690019570
C                1.3457765000        2.8762697665       11.9923302927
O                6.0049125099        1.9925631984        7.0136395363
O                4.4601487286        4.6666691544        7.0176689014
O                1.3338977499        4.6662563051        7.0135625696
F                2.9001461094        1.9821035412        6.6435652209
O                5.9058082855        0.3142259217       17.3495876814
H                5.0105626280       -0.0755526992       17.5686510796
O                5.4720132597        2.7470649513       16.9465574967
H                5.7107387163        1.3226293373       17.4092218481
O                3.4875506756       -0.4527694744       17.0577641843
H                2.7382707776       -0.7077807426       17.6378023833
F                2.0536553551        2.5651761429       17.5524661836


