&CONTROL
    calculation = "scf"
    prefix      = "cr"
    restart_mode     = 'from_scratch'
    pseudo_dir  = '../'
    disk_io          = 'high'
    wfcdir           = './'
    wf_collect       = .true.
    tprnfor          = .true.
    tstress          = .true.


/

&SYSTEM
    a                         =  6.21436e+00
    c                         =  2.39280e+01
    degauss                   =  1.00000e-02
    ecutrho                   =  7.0000e+02
    ecutwfc                   =  7.0000e+01
    ibrav                     = 4
    nat                       = 39
    ntyp                      = 6
    lda_plus_u  = .true.
    occupations = "smearing"
    smearing    = "fermi-dirac"
    nosym       = .true.
    noinv       = .true.
    hubbard_u(1) = 6.12
    hubbard_u(2) = 3.34
/

&ELECTRONS
    conv_thr         =  1.00000e-06
    diagonalization  = "david"
    electron_maxstep = 200
    mixing_beta      =  7.00000e-01
    mixing_mode      = "local-TF"
    startingpot      = "atomic"
    startingwfc      = "atomic+random"

/

&IONS
    ion_dynamics  = "bfgs"
/

&CELL
/

K_POINTS {automatic}
12 12  1  0 0 0

ATOMIC_SPECIES
Cr     51.99610  Cr.pbe-spn-kjpaw_psl.1.0.0.UPF
Nb     92.90638  Nb.pbe-spn-kjpaw_psl.1.0.0.UPF
C      12.01070  C.pbe-n-kjpaw_psl.1.0.0.UPF
O      15.99940  O.pbe-n-kjpaw_psl.1.0.0.UPF
F      18.99840  F.pbe-n-kjpaw_psl.1.0.0.UPF
H       1.00794  H.pbe-kjpaw_psl.1.0.0.UPF

ATOMIC_POSITIONS {angstrom}
Cr            4.7330442114        2.4765125770       15.5750093812
Cr            3.2176317358       -0.3028238479       15.5833114617
Cr            1.8355190001        2.5163099034        8.4346338374
Nb            1.8352892895        0.5333541263       13.3107549139
Nb            4.9201255211        0.5481137358       13.3771506217
Nb            0.2606520112        3.2238953716       13.3627857372
Nb            3.3867149198        3.2102753187       13.2813793909
Nb            0.2535386812        1.4628494957       10.6127232591
Nb           -1.2965989314        4.1363414280       10.6396666243
Nb            3.3491488357        1.4386204685       10.6014916940
Nb            6.5306500710       -0.4486598147       15.8141465290
Nb            1.9505266513        2.3146019471       15.8089581357
Nb            3.3517594900        4.9476396420        8.1307247078
Nb            4.9090370615        2.4021678225        8.1530724590
Nb            0.2610113677        4.8703926993        8.0930283657
Nb            1.7937926372        4.1393713422       10.6473253864
C             0.2006715862        1.4722268164       14.7125116199
C             3.4073590831        1.4074137302       14.6052074737
C             1.7984189047        0.6139916376        9.2564234109
C            -2.8431284451        5.0301896946       11.9907771515
C            -1.2689013046        4.1210913289       14.5872599599
C             1.7568725252        4.1550995988       14.6778952161
C             0.2546936834        3.2034961916        9.3764426092
C             4.8961663657        0.5318765557        9.3328543590
C             3.3669359945        3.2288900110        9.3727249058
C            -1.2988867309        2.3404746205       11.9770209506
C             0.2486630904        5.0346316706       11.9714498983
C             1.8064682627        2.3278864316       12.0112741042
F             3.0344813255        6.6411932670        6.7504297572
O             4.8887448954        4.1226535721        6.9511459365
O             0.1114793488        6.8414256011        7.0143725716
H            -0.0567876381        6.9858995079        6.0658214996
O             1.7954197251        4.0036358240        7.0572677682
O             1.9437853364        0.4762333141       17.0744196151
H             2.2300867459        0.3839696267       18.0018528811
O             3.4699011226        3.1801440507       16.9647842018
O             0.1918329009        3.2414727836       16.8442788435
H             0.0124864189        3.2904898197       17.7991573220
F             4.9324625631        0.4148859586       16.9920360663
