&CONTROL
    calculation = "scf"
    prefix      = "cu"
    restart_mode     = 'from_scratch'
    pseudo_dir  = '/home/luis.arrietaaraya/docs/psp/paw6.1'
    disk_io          = 'high'
    wfcdir           = './'
    wf_collect       = .true.
    tprnfor          = .true.
    tstress          = .true.


/

&SYSTEM
    a                         =  6.21436e+00
    c                         =  2.39280e+01
    degauss                   =  1.00000e-02
    ecutrho                   =  7.0000e+02
    ecutwfc                   =  7.0000e+01
    ibrav                     = 4
    nat                       = 39
    ntyp                      = 6
    lda_plus_u  = .true.
    occupations = "smearing"
    smearing    = "fermi-dirac"
    nosym       = .true.
    noinv       = .true.
    hubbard_u(1) = 13.90
    hubbard_u(2) = 3.33
/

&ELECTRONS
    conv_thr         =  1.00000e-06
    diagonalization  = "david"
    electron_maxstep = 200
    mixing_beta      =  7.00000e-01
    mixing_mode      = "local-TF"
    startingpot      = "atomic"
    startingwfc      = "atomic+random"

/

&IONS
    ion_dynamics  = "bfgs"
/

&CELL
/

K_POINTS {automatic}
12 12  1  0 0 0

ATOMIC_SPECIES
Cu     63.54600  Cu.pbe-spn-kjpaw_psl.1.0.0.UPF
Nb     92.90638  Nb.pbe-spn-kjpaw_psl.1.0.0.UPF
C      12.01070  C.pbe-n-kjpaw_psl.1.0.0.UPF
O      15.99940  O.pbe-n-kjpaw_psl.1.0.0.UPF
F      18.99840  F.pbe-n-kjpaw_psl.1.0.0.UPF
H       1.00794  H.pbe-kjpaw_psl.1.0.0.UPF

ATOMIC_POSITIONS {angstrom}
Cu            6.6575798423        0.3430308046       15.5063376720
Cu            5.0929548246        2.9994074313       15.4802679635
Cu            5.0940046643        3.0182890932        8.3905311338
Nb            1.9746458521        1.2123452614       13.1785760055
Nb            5.0843760405        1.2226561531       13.3109944597
Nb            0.4250371694        3.9130209910       13.1945594502
Nb            3.5314047685        3.8960460079       13.3261405991
Nb            0.4632894202        2.1442759557       10.6162711230
Nb           -1.0773253228        4.8106188166       10.6167897366
Nb            3.5824704163        2.1361897145       10.6387391782
Nb            1.9312957024        2.8776744823       15.8369749909
Nb            3.5504496850        5.6951251378        8.0416049728
Nb            3.4971384632        0.2097302829       15.8834938174
Nb            0.3971243565        5.5881083831        8.0248631494
Nb            2.0420703752        4.8356466317       10.7258986599
Nb            1.8550744832        3.0352720639        8.0093328960
C             0.4868995755        2.1620352375       14.5126288825
C             3.4910165269        2.0469375478       14.6182217173
C             2.0124829138        1.2336848341        9.3132649167
C            -2.6592997026        5.7037329554       11.9674285597
C            -1.0538464445        4.8326205862       14.6230337570
C             1.9531450483        4.7644278897       14.6664171436
C             0.4766780900        3.9326726306        9.3388369747
C             5.1097303675        1.1836532745        9.3055185114
C             3.5179418313        3.9398781072        9.3080629084
C            -1.1148380180        3.0153678054       11.9672925400
C             0.4555817053        5.7249675846       11.9537077048
C             2.0175578008        3.0205854899       11.9606947017
O            -1.0800844091        5.0147634941        6.9391018871
O             0.6188415116        2.0505520031        6.9433218350
O             2.0259717876        4.8246709238        6.9794595564
F             3.4525838850        2.0709335226        6.8692003068
O             4.7535134369       -0.9593696229       17.2713108395
H             4.1598785902       -1.2076961176       18.0123685271
O             3.4900397712        2.0240272285       17.1418111974
H             3.3583892698        1.9099256542       18.1040832494
F             2.3654804719       -0.3680419590       17.5156049280
O             0.6931546298        1.7140694659       17.1288488691
H             1.1586803007        1.1682041985       17.7981315439
