&CONTROL
    calculation = "scf"
    prefix      = "fe"
    restart_mode     = 'from_scratch'
    pseudo_dir  = '../'
    disk_io          = 'high'
    wfcdir           = './'
    wf_collect       = .true.
    tprnfor          = .true.
    tstress          = .true.


/

&SYSTEM
    a                         =  6.21436e+00
    c                         =  2.39280e+01
    degauss                   =  1.00000e-02
    ecutrho                   =  7.0000e+02
    ecutwfc                   =  7.0000e+01
    ibrav                     = 4
    nat                       = 39
    ntyp                      = 6
    lda_plus_u  = .true.
    occupations = "smearing"
    smearing    = "fermi-dirac"
    nosym       = .true.
    noinv       = .true.
    hubbard_u(1) = 6.53
    hubbard_u(2) = 3.46
/

&ELECTRONS
    conv_thr         =  1.00000e-06
    diagonalization  = "david"
    electron_maxstep = 200
    mixing_beta      =  7.00000e-01
    mixing_mode      = "local-TF"
    startingpot      = "atomic"
    startingwfc      = "atomic+random"

/

&IONS
    ion_dynamics  = "bfgs"
/

&CELL
/

K_POINTS {automatic}
12 12  1  0 0 0

ATOMIC_SPECIES
Fe     55.84500  Fe.pbe-spn-kjpaw_psl.1.0.0.UPF
Nb     92.90638  Nb.pbe-spn-kjpaw_psl.1.0.0.UPF
C      12.01070  C.pbe-n-kjpaw_psl.1.0.0.UPF
O      15.99940  O.pbe-n-kjpaw_psl.1.0.0.UPF
F      18.99840  F.pbe-n-kjpaw_psl.1.0.0.UPF
H       1.00794  H.pbe-kjpaw_psl.1.0.0.UPF

ATOMIC_POSITIONS {angstrom}
Fe            3.2365650637        5.2576793016        8.5858297649
Fe            4.7765930772        2.4930717332        8.5972629835
Fe            1.7099062489        2.5446674765        8.5332525825
Nb            1.6826039191        0.7052223332       13.3509775960
Nb            4.7340905792        0.7049316359       13.3402148251
Nb            0.1023012213        3.4452247780       13.3489455885
Nb            3.2042535451        3.4103315667       13.3102150536
Nb            0.1027826500        1.6199040076       10.6628746479
Nb           -1.4565898120        4.3053009394       10.6724110218
Nb            3.2253128521        1.6132807760       10.6213823901
Nb            6.3148062886       -0.2138572997       15.8412022625
Nb            4.7279562488        2.5343322200       15.8409280125
Nb            1.6855518350        2.5331640397       15.8423397387
Nb            3.2082624998       -0.1757359799       15.9053418656
Nb           -0.2238412175        4.9995615077        7.9119511828
Nb            1.6574441382        4.3300074667       10.6101578389
C             0.1022568149        1.6188035363       14.6438829249
C             3.2071326700        1.6099105776       14.5964344816
C             1.6494728843        0.7653460868        9.2842276605
C            -3.0067682740        5.2046569499       11.9723406015
C            -1.4472826076        4.3119059191       14.5957245742
C             1.6476243614        4.3124817752       14.5969082180
C             0.1275139937        3.3756335277        9.2550206992
C             4.7511038459        0.7109708296        9.1791417861
C             3.2242732409        3.4327087298        9.1746619442
C            -1.4538089186        2.5160898543       11.9759110453
C             0.1037400014        5.2074063390       11.9317949692
C             1.6570123916        2.5177088773       11.9600155204
F             0.8360869606        5.4741992761        6.3729911776
O             4.1707783798        5.3802947240        6.9019158015
H             4.3001016726        6.3914541447        6.6266640998
O             1.6780619001        2.3947439946        6.6711340112
H             0.9740778480        2.9415264361        6.2631058546
O             5.3183628674        3.1999074462        6.8781134086
H             4.5701911924        3.4651903867        6.2998508395
F             3.2102602153        3.4127790863       17.3186434637
O             0.0999975646        3.4016745408       16.9275724465
O             4.7685261826        0.7254425646       16.9284066055
O             1.6454771408        0.7252385314       16.9280326456

