&CONTROL
    calculation = "scf"
    prefix      = "mn"
    restart_mode     = 'from_scratch'
    pseudo_dir  = '/home/luis.arrietaaraya/docs/psp/paw6.1'
    disk_io          = 'high'
    wfcdir           = './'
    wf_collect       = .true.
    tprnfor          = .true.
    tstress          = .true.


/

&SYSTEM
    a                         =  6.21436e+00
    c                         =  2.39280e+01
    degauss                   =  1.00000e-02
    ecutrho                   =  7.0000e+02
    ecutwfc                   =  7.0000e+01
    ibrav                     = 4
    nat                       = 39
    ntyp                      = 6
    lda_plus_u  = .true.
    occupations = "smearing"
    smearing    = "fermi-dirac"
    nosym       = .true.
    noinv       = .true.
    hubbard_u(1) = 6.67
    hubbard_u(2) = 3.52
/

&ELECTRONS
    conv_thr         =  1.00000e-06
    diagonalization  = "david"
    electron_maxstep = 200
    mixing_beta      =  7.00000e-01
    mixing_mode      = "local-TF"
    startingpot      = "atomic"
    startingwfc      = "atomic+random"

/

&IONS
    ion_dynamics  = "bfgs"
/

&CELL
/

K_POINTS {automatic}
12 12  1  0 0 0

ATOMIC_SPECIES
Mn     54.93805  Mn.pbe-spn-kjpaw_psl.0.3.1.UPF
Nb     92.90638  Nb.pbe-spn-kjpaw_psl.1.0.0.UPF
C      12.01070  C.pbe-n-kjpaw_psl.1.0.0.UPF
O      15.99940  O.pbe-n-kjpaw_psl.1.0.0.UPF
F      18.99840  F.pbe-n-kjpaw_psl.1.0.0.UPF
H       1.00794  H.pbe-kjpaw_psl.1.0.0.UPF

ATOMIC_POSITIONS {angstrom}
Mn            1.6048271806        2.7424584679       15.5553215715
Mn            4.5562160507        2.6416012978        8.5317305480
Mn            3.1692933285        0.0327282536       15.5559265422
Nb            1.4750380845        0.8611753835       13.4181089870
Nb            4.5637689130        0.8831962404       13.3778596690
Nb           -0.0450813222        3.5707836628       13.3687257591
Nb            3.0389640374        3.5246449499       13.3762666539
Nb           -0.0620943882        1.7885897173       10.6993517179
Nb           -1.5988544671        4.4487063368       10.6977851399
Nb            3.0646922429        1.7797745943       10.7007836250
Nb            5.9444277784       -0.1462981375       16.0090781740
Nb            4.8711943014        2.8220211298       16.0685945666
Nb            3.0052630361        5.3349390230        8.1900189719
Nb           -0.0604988967        5.3021601972        8.1997684559
Nb            1.5221821826        4.4796711479       10.7395803000
Nb            1.4556215993        2.6923786682        8.2083740912
C            -0.0134890733        1.7855711561       14.7250718407
C             3.0316077564        1.7597369708       14.7241136390
C             1.4887235366        0.8696535944        9.3671510669
C            -3.1725343594        5.3537704626       12.0589797195
C            -1.5749805221        4.4919122106       14.7255498317
C             1.4581117198        4.4390043454       14.6398121036
C            -0.0873666218        3.5471261580        9.3554686863
C             4.6178407115        0.8875189097        9.3415897046
C             3.0615699793        3.5686948878        9.3440514555
C            -1.6137311500        2.6655484698       12.0706244554
C            -0.0558020909        5.3654663055       12.0366010081
C             1.5032596409        2.6667792336       12.0376509697
F             2.6557249583        5.2241176354        6.3015444551
O             1.2409949793        2.3745904294        6.3319958502
H             0.3633051259        2.2968073413        5.8946196531
O            -0.5426696938        5.0771913154        6.3719639647
H            -1.0090249958        4.2110674369        6.1381895402
O             4.6087202308        2.7066410844        6.6103332241
H             3.8485272437        2.3503208496        6.1116271417
O             3.0239897717        3.4657935811       16.8633208728
O             4.5058537535        0.9001227785       16.8640179162
O             6.2991247101        3.6455251016       16.9078489558
F             7.5976047135        0.8069933400       16.9232278759

