&CONTROL
    calculation = "scf"
    prefix      = "ni"
    restart_mode     = 'from_scratch'
    pseudo_dir  = '/home/luis.arrietaaraya/docs/psp/paw6.1'
    disk_io          = 'high'
    wfcdir           = './'
    wf_collect       = .true.
    tprnfor          = .true.
    tstress          = .true.


/

&SYSTEM
    a                         =  6.21436e+00
    c                         =  2.39280e+01
    degauss                   =  1.00000e-02
    ecutrho                   =  7.0000e+02
    ecutwfc                   =  7.0000e+01
    ibrav                     = 4
    nat                       = 39
    ntyp                      = 6
    lda_plus_u  = .true.
    occupations = "smearing"
    smearing    = "fermi-dirac"
    nosym       = .true.
    noinv       = .true.
    hubbard_u(1) = 10.75
    hubbard_u(2) = 3.58

/

&ELECTRONS
    conv_thr         =  1.00000e-06
    diagonalization  = "david"
    electron_maxstep = 200
    mixing_beta      =  7.00000e-01
    mixing_mode      = "local-TF"
    startingpot      = "atomic"
    startingwfc      = "atomic+random"

/

&IONS
    ion_dynamics  = "bfgs"
/

&CELL
/

K_POINTS {automatic}
12 12  1  0 0 0

ATOMIC_SPECIES
Ni     58.69340  Ni.pbe-n-kjpaw_psl.1.0.0.UPF
Nb     92.90638  Nb.pbe-spn-kjpaw_psl.1.0.0.UPF
C      12.01070  C.pbe-n-kjpaw_psl.1.0.0.UPF
O      15.99940  O.pbe-n-kjpaw_psl.1.0.0.UPF
F      18.99840  F.pbe-n-kjpaw_psl.1.0.0.UPF
H       1.00794  H.pbe-kjpaw_psl.1.0.0.UPF

ATOMIC_POSITIONS {angstrom}
Ni            3.0573172824        5.5209917293        8.5212251752
Ni            4.5062596745        2.9796637298        8.4843685923
Ni            1.2186317266        2.8203368676        8.2721884686
Nb            1.4103500712        1.1151268430       13.2138294298
Nb            4.5099269709        1.1055154305       13.1767315209
Nb           -0.1377790467        3.8025350416       13.2380522152
Nb            2.9657541433        3.8053907830       13.2391072206
Nb           -0.1177107881        2.0056205490       10.5342361484
Nb           -1.6399006546        4.7114365718       10.6504699772
Nb            2.9894797307        2.0132646033       10.5047696273
Nb            6.0922336792        0.1883920203       15.7571843893
Nb            4.5373921366        2.8813041334       15.8040155319
Nb            1.4344569964        2.8996406355       15.7464068015
Nb            3.0126978442        0.1893204747       15.7514137934
Nb           -0.1115174469        5.6043905873        7.6512512681
Nb            1.4429076019        4.6925174275       10.5232738505
C            -0.1038887595        2.0030799155       14.5715552547
C             2.9490146664        1.9996170187       14.5640964361
C             1.4235100598        1.1349509809        9.3072299040
C            -3.2389520686        5.5796605690       11.8838342367
C            -1.6845331555        4.7142204331       14.5644304343
C             1.4194179205        4.6866297929       14.5505203214
C            -0.1354041662        3.7879560478        9.3124127155
C             4.5374235762        1.0917297319        9.2293269705
C             2.8497677459        3.7151339541        9.1999580749
C            -1.6921868215        2.9099461545       11.8855552874
C            -0.1305065757        5.5903823836       11.8869360459
C             1.4318525121        2.9051134237       11.8676054409
O             0.8883154859        4.2429730221        6.9575416676
O             4.3646066400        4.5968213679        7.3587474220
F             4.2688149143        1.4782501101        6.6714908295
O             1.8097643715        1.6764042578        6.7356488715
H             2.3081039902        2.2560678257        6.1251843725
O             6.3071115378       -0.0173138435       17.6323231553
H             6.7703530310       -0.6726764454       18.1930303274
F             1.4663708392        2.8571803674       17.6649737144
O             4.5945146362        2.8420816369       17.5645358892
O             3.1768951920        0.0032536840       17.6326455621
H             3.6256688662       -0.5852464452       18.2674235075

