&CONTROL
    calculation = "scf"
    prefix      = "ti"
    restart_mode     = 'from_scratch'
    pseudo_dir  = "/home/luis.arrietaaraya/docs/psp/paw"
    disk_io          = 'high'
    wfcdir           = './'
    wf_collect       = .true.
    tprnfor          = .true.
    tstress          = .true.


/

&SYSTEM
    a                         =  6.21436e+00
    c                         =  2.39280e+01
    degauss                   =  1.00000e-02
    ecutrho                   =  7.0000e+02
    ecutwfc                   =  7.0000e+01
    ibrav                     = 4
    nat                       = 39
    ntyp                      = 6
    lda_plus_u  = .true.
    occupations = "smearing"
    smearing    = "fermi-dirac"
    nosym       = .true.
    noinv       = .true.
    hubbard_u(1) = 4.34
    hubbard_u(2) = 3.42
/

&ELECTRONS
    conv_thr         =  1.00000e-08
    diagonalization  = "david"
    electron_maxstep = 200
    mixing_beta      =  7.00000e-01
    mixing_mode      = "local-TF"
    startingpot      = "atomic"
    startingwfc      = "atomic+random"

/

&IONS
    ions_dynamics  = "bfgs"
/

&CELL
/

K_POINTS {automatic}
12 12  1  0 0 0


ATOMIC_SPECIES
Ti     47.86700  Ti.pbe-spn-kjpaw_psl.1.0.0.UPF
Nb     92.90638  Nb.pbe-spn-kjpaw_psl.1.0.0.UPF
C      12.01070  C.pbe-n-kjpaw_psl.1.0.0.UPF
O      15.99940  O.pbe-n-kjpaw_psl.1.0.0.UPF
F      18.99840  F.pbe-n-kjpaw_psl.1.0.0.UPF
H       1.00794  H.pbe-kjpaw_psl.1.0.0.UPF

ATOMIC_POSITIONS {angstrom}
Ti            5.6820391594       -0.3022960817       15.8730646444
Ti            1.1628984009        2.5156098235       15.8258602171
Ti            2.7543376016       -0.2439968089       15.8301175491
Nb            1.1137343499        0.6455004376       13.3844757896
Nb            4.2286182724        0.6276302989       13.3439109621
Nb           -0.4344466239        3.3433019281       13.3346542838
Nb            2.6558443646        3.3554804731       13.3402057108
Nb           -0.4388229648        1.5396555662       10.6965672130
Nb           -1.9901256233        4.2423709232       10.7122220701
Nb            2.6644753282        1.5368856823       10.7468442346
Nb            4.1590633869        2.4068544481       15.8235666144
Nb            2.6662282033        5.0832352003        8.1097030271
Nb            4.1762521579        2.4638428461        8.1149875838
Nb           -0.4401858940        5.1334677018        8.1367370156
Nb            1.1050228373        4.2363995071       10.7148040490
Nb            1.1545199638        2.4632838283        8.1081594079
C            -0.4225158099        1.5391682311       14.6858432673
C             2.6421116039        1.5297866293       14.6574129617
C             1.1151225416        0.6411661039        9.3509737034
C            -3.5437689435        5.1389125427       11.9904155429
C            -1.9886644321        4.2539528285       14.6853564121
C             1.1069336291        4.2319296798       14.6651004587
C            -0.4461967816        3.3410087475        9.3570284125
C             4.2178583171        0.6463726120        9.3437197267
C             2.6701845649        3.3384633025        9.4194463970
C            -1.9889172083        2.4394444648       12.0001992988
C            -0.4446736472        5.1276463267       12.0053696666
C             1.1044399187        2.4373541638       11.9922086346
O             5.7766752894        3.3521590670        6.7609722795
H             5.7868896390        3.3915004911        5.7876080099
O             2.6689661468        3.3387392771        6.8754919836
F             1.0813520746        6.0108203224        6.6735712851
O             4.2378494028        6.0247485288        6.7526408683
H             4.2837820120        6.0140808905        5.7792942084
O             5.8051318237        3.3552618401       17.0673617244
H             5.8658773147        3.3916653544       18.0380583605
F             7.3444549179        0.6561274293       16.9990752793
O             4.2113113596        0.6068736188       16.9066488805
O             2.6259998407        3.3495896401       16.9074447216

