&CONTROL
    calculation = "scf"
    prefix      = "v"
    restart_mode     = 'from_scratch'
    pseudo_dir  = '../'
    disk_io          = 'high'
    wfcdir           = './'
    wf_collect       = .true.
    tprnfor          = .true.
    tstress          = .true.


/

&SYSTEM
    a                         =  6.21436e+00
    c                         =  2.39280e+01
    degauss                   =  1.00000e-02
    ecutrho                   =  7.0000e+02
    ecutwfc                   =  7.0000e+01
    ibrav                     = 4
    nat                       = 39
    ntyp                      = 6
    lda_plus_u  = .true.
    occupations = "smearing"
    smearing    = "fermi-dirac"
    nosym       = .true.
    noinv       = .true.
    hubbard_u(1) = 5.28
    hubbard_u(2) = 3.59
/

&ELECTRONS
    conv_thr         =  1.00000e-06
    diagonalization  = "david"
    electron_maxstep = 200
    mixing_beta      =  7.00000e-01
    mixing_mode      = "local-TF"
    startingpot      = "atomic"
    startingwfc      = "atomic+random"

/

&IONS
    ion_dynamics  = "bfgs"
/

&CELL
/

K_POINTS {automatic}
12 12  1  0 0 0

ATOMIC_SPECIES
V      50.94150  V.pbe-spnl-kjpaw_psl.1.0.0.UPF
Nb     92.90638  Nb.pbe-spn-kjpaw_psl.1.0.0.UPF
C      12.01070  C.pbe-n-kjpaw_psl.1.0.0.UPF
O      15.99940  O.pbe-n-kjpaw_psl.1.0.0.UPF
F      18.99840  F.pbe-n-kjpaw_psl.1.0.0.UPF
H       1.00794  H.pbe-kjpaw_psl.1.0.0.UPF

ATOMIC_POSITIONS {angstrom}
V             4.4571378672        2.7124944926       15.6592680791
V             3.1673354887        5.2351003341        8.3000870397
V             2.9649720786        0.0729629569       15.6682162908
Nb            1.5195934818        0.8669981993       13.3136890519
Nb            4.6123385262        0.8811675316       13.3606645627
Nb           -0.0578027911        3.5665948303       13.3697370310
Nb            3.0800578612        3.5565596515       13.2960164642
Nb           -0.0365722231        1.7581281074       10.6100040199
Nb           -1.6032338336        4.4598721517       10.6293888240
Nb            3.0564115474        1.7713911502       10.6336520788
Nb            6.2537721032       -0.1162739927       15.8025256710
Nb            1.6238345275        2.6479028363       15.7987914068
Nb            4.5124449259        2.7320103376        8.1348371958
Nb           -0.1377877616        5.4102665667        8.1187220416
Nb            1.5178025466        4.4583875340       10.6301730619
Nb            1.6106093226        2.6640901533        8.1713390872
C            -0.0761563004        1.7898768668       14.6922263119
C             3.0779675360        1.7597929544       14.5739121860
C             1.4679297096        0.8757033334        9.3468532602
C            -3.1576709220        5.3658710448       12.0037080307
C            -1.5604783623        4.4396359590       14.6100978316
C             1.4718257626        4.4860253940       14.6718141545
C            -0.0420731627        3.5671008679        9.3257789313
C             4.6541077346        0.8507044750        9.2879302344
C             3.0557550671        3.5787784610        9.4030316188
C            -1.5955676639        2.6612940451       11.9737994943
C            -0.0421827554        5.3581832336       11.9670585032
C             1.5066129765        2.6649412649       11.9960749928
F            -0.0452861392        1.7702462506        6.9411187478
O             3.0649984045        1.7665116062        6.9439817257
O            -1.6590117772        4.4926939992        7.0119484216
O             1.5755637793        4.5145252424        6.9378848968
H             1.7455628238        4.5797210980        5.9811189877
F             6.1732451176        3.6337348346       16.9589583771
O             4.5543052738        0.9117382154       16.9166627395
H             4.4187339080        1.0124532473       17.8744270249
O             7.7898827862        0.8310380653       17.1297593743
H             7.8921136196        0.7048380131       18.0905020172
O             3.1225782149        3.5250708837       16.9812516036





